Cs8 Na4 Bi4 Cl24                        
   1.00000000000000     
    15.2784481049000007    0.0000000000000000    0.0000000000000000
     0.0000000000000000   15.2784481049000007    0.0000000000000000
     0.0000000000000000    0.0000000000000000   21.6069889068999998
   Cs   Na   Bi   Cl
    32    16    16    96
Direct
  0.2499999705285086  0.0000000849048405  0.3749999998878537
  0.7499999705285085  0.5000000849048405  0.3749999998878537
  0.7499999705285085  0.5000000849048405  0.8749999998878536
  0.2499999705285086  0.0000000849048405  0.8749999998878536
  0.5000000294714915  0.2499999150951595  0.3750000001121463
  0.0000000294714914  0.7499999150951595  0.3750000001121463
  0.0000000294714914  0.7499999150951595  0.8750000001121464
  0.5000000294714915  0.2499999150951595  0.8750000001121464
  0.4999999705285086  0.2500000849048405  0.1249999998878536
 -0.0000000294714914  0.7500000849048405  0.1249999998878536
 -0.0000000294714914  0.7500000849048405  0.6249999998878536
  0.4999999705285086  0.2500000849048405  0.6249999998878536
  0.2500000294714914 -0.0000000849048405  0.1250000001121464
  0.7500000294714915  0.4999999150951595  0.1250000001121464
  0.7500000294714915  0.4999999150951595  0.6250000001121464
  0.2500000294714914 -0.0000000849048405  0.6250000001121464
  0.4999999705285086  0.7500000849048405  0.1249999998878536
 -0.0000000294714914  0.2500000849048405  0.1249999998878536
 -0.0000000294714914  0.2500000849048405  0.6249999998878536
  0.4999999705285086  0.7500000849048405  0.6249999998878536
  0.7500000294714915 -0.0000000849048405  0.1250000001121464
  0.2500000294714914  0.4999999150951595  0.1250000001121464
  0.2500000294714914  0.4999999150951595  0.6250000001121464
  0.7500000294714915 -0.0000000849048405  0.6250000001121464
  0.7499999705285085  0.0000000849048405  0.3749999998878537
  0.2499999705285086  0.5000000849048405  0.3749999998878537
  0.2499999705285086  0.5000000849048405  0.8749999998878536
  0.7499999705285085  0.0000000849048405  0.8749999998878536
  0.5000000294714915  0.7499999150951595  0.3750000001121463
  0.0000000294714914  0.2499999150951595  0.3750000001121463
  0.0000000294714914  0.2499999150951595  0.8750000001121464
  0.5000000294714915  0.7499999150951595  0.8750000001121464
  0.2500000000000000  0.7500000000000000 -0.0000000000000000
  0.7500000000000000  0.2500000000000000 -0.0000000000000000
  0.7500000000000000  0.2500000000000000  0.5000000000000000
  0.2500000000000000  0.7500000000000000  0.5000000000000000
  0.5000000000000000 -0.0000000000000000  0.2500000000000000
  0.0000000000000000  0.5000000000000000  0.2500000000000000
  0.0000000000000000  0.5000000000000000  0.7500000000000000
  0.5000000000000000 -0.0000000000000000  0.7500000000000000
  0.0000000000000000 -0.0000000000000000  0.2500000000000000
  0.5000000000000000  0.5000000000000000  0.2500000000000000
  0.5000000000000000  0.5000000000000000  0.7500000000000000
  0.0000000000000000 -0.0000000000000000  0.7500000000000000
  0.2500000000000000  0.2500000000000000 -0.0000000000000000
  0.7500000000000000  0.7500000000000000 -0.0000000000000000
  0.7500000000000000  0.7500000000000000  0.5000000000000000
  0.2500000000000000  0.2500000000000000  0.5000000000000000
  0.0000000000000000 -0.0000000000000000 -0.0000000000000000
  0.5000000000000000  0.5000000000000000 -0.0000000000000000
  0.5000000000000000  0.5000000000000000  0.5000000000000000
  0.0000000000000000 -0.0000000000000000  0.5000000000000000
  0.2500000000000000  0.2500000000000000  0.2500000000000000
  0.7500000000000000  0.7500000000000000  0.2500000000000000
  0.7500000000000000  0.7500000000000000  0.7500000000000000
  0.2500000000000000  0.2500000000000000  0.7500000000000000
  0.2500000000000000  0.7500000000000000  0.2500000000000000
  0.7500000000000000  0.2500000000000000  0.2500000000000000
  0.7500000000000000  0.2500000000000000  0.7500000000000000
  0.2500000000000000  0.7500000000000000  0.7500000000000000
  0.5000000000000000 -0.0000000000000000 -0.0000000000000000
  0.0000000000000000  0.5000000000000000 -0.0000000000000000
  0.0000000000000000  0.5000000000000000  0.5000000000000000
  0.5000000000000000 -0.0000000000000000  0.5000000000000000
  0.1249159214047443  0.8750840378465818  0.0000000329740519
  0.6249159434047532  0.3750840378465818  0.0000000329740519
  0.6249159434047532  0.3750840378465818  0.5000000329740518
  0.1249159214047443  0.8750840378465818  0.5000000329740518
  0.2500000067548396  0.7499999614456871  0.3749588027953075
  0.7500000067548396  0.2499999614456872  0.3749588027953075
  0.7500000067548396  0.2499999614456872  0.8749588327953099
  0.2500000067548396  0.7499999614456871  0.8749588327953099
  0.3750840865952564  0.6249159621534182 -0.0000000329740519
  0.8750840565952468  0.1249159621534111 -0.0000000329740519
  0.8750840565952468  0.1249159621534111  0.4999999670259481
  0.3750840865952564  0.6249159621534182  0.4999999670259481
  0.6249159959168206  0.1249159647796875 -0.0000000280739857
  0.1249159959168134  0.6249159947796971 -0.0000000280739857
  0.1249159959168134  0.6249159947796971  0.4999999719260143
  0.6249159959168206  0.1249159647796875  0.4999999719260143
  0.3750840340831891  0.8750840052203029  0.0000000280739857
  0.8750840040831794  0.3750840052203029  0.0000000280739857
  0.8750840040831794  0.3750840052203029  0.5000000280739857
  0.3750840340831891  0.8750840052203029  0.5000000280739857
 -0.0000000067548396  0.0000000385543128  0.3750411972046925
  0.4999999932451604  0.5000000385543129  0.3750411972046925
  0.4999999932451604  0.5000000385543129  0.8750411672046901
 -0.0000000067548396  0.0000000385543128  0.8750411672046901
  0.3749159134047436  0.1250840678465914  0.2500000329740519
  0.8749159434047532  0.6250840378465818  0.2500000329740519
  0.8749159434047532  0.6250840378465818  0.7500000329740518
  0.3749159134047436  0.1250840678465914  0.7500000329740518
  0.5000000067548396 -0.0000000385543128  0.1249588107953081
  0.0000000067548396  0.4999999614456871  0.1249588107953081
  0.0000000067548396  0.4999999614456871  0.6249588327953099
  0.5000000067548396 -0.0000000385543128  0.6249588327953099
  0.6250840565952468  0.8749159621534182  0.2499999670259481
  0.1250840565952539  0.3749159621534182  0.2499999670259481
  0.1250840565952539  0.3749159621534182  0.7499999670259482
  0.6250840565952468  0.8749159621534182  0.7499999670259482
  0.3749159659168109  0.8749159947796971  0.2499999719260143
  0.8749159959168206  0.3749159947796971  0.2499999719260143
  0.8749159959168206  0.3749159947796971  0.7499999719260143
  0.3749159659168109  0.8749159947796971  0.7499999719260143
  0.6250840040831794  0.1250840352203125  0.2500000280739857
  0.1250840040831866  0.6250840052203029  0.2500000280739857
  0.1250840040831866  0.6250840052203029  0.7500000280739857
  0.6250840040831794  0.1250840352203125  0.7500000280739857
  0.2499999932451604  0.2500000385543129  0.1250411972046925
  0.7499999932451604  0.7500000385543129  0.1250411972046925
  0.7499999932451604  0.7500000385543129  0.6250411672046901
  0.2499999932451604  0.2500000385543129  0.6250411672046901
  0.3749159134047436  0.6250840378465818  0.2500000329740519
  0.8749159434047532  0.1250840378465889  0.2500000329740519
  0.8749159434047532  0.1250840378465889  0.7500000329740518
  0.3749159134047436  0.6250840378465818  0.7500000329740518
  0.0000000067548396 -0.0000000385543128  0.1249588107953081
  0.5000000067548396  0.4999999614456871  0.1249588107953081
  0.5000000067548396  0.4999999614456871  0.6249588327953099
  0.0000000067548396 -0.0000000385543128  0.6249588327953099
  0.1250840865952564  0.8749159621534182  0.2499999670259481
  0.6250840565952468  0.3749159621534182  0.2499999670259481
  0.6250840565952468  0.3749159621534182  0.7499999670259482
  0.1250840865952564  0.8749159621534182  0.7499999670259482
  0.3749159659168109  0.3749159647796875  0.2499999719260143
  0.8749159959168206  0.8749159947796971  0.2499999719260143
  0.8749159959168206  0.8749159947796971  0.7499999719260143
  0.3749159659168109  0.3749159647796875  0.7499999719260143
  0.1250840340831891  0.1250840352203125  0.2500000280739857
  0.6250840040831794  0.6250840052203029  0.2500000280739857
  0.6250840040831794  0.6250840052203029  0.7500000280739857
  0.1250840340831891  0.1250840352203125  0.7500000280739857
  0.2499999932451604  0.7500000385543129  0.1250411972046925
  0.7499999932451604  0.2500000385543129  0.1250411972046925
  0.7499999932451604  0.2500000385543129  0.6250411672046901
  0.2499999932451604  0.7500000385543129  0.6250411672046901
  0.6249159434047532  0.8750840378465818  0.0000000329740519
  0.1249159434047461  0.3750840378465818  0.0000000329740519
  0.1249159434047461  0.3750840378465818  0.5000000329740518
  0.6249159434047532  0.8750840378465818  0.5000000329740518
  0.2500000067548396  0.2499999614456872  0.3749588027953075
  0.7500000067548396  0.7499999614456871  0.3749588027953075
  0.7500000067548396  0.7499999614456871  0.8749588327953099
  0.2500000067548396  0.2499999614456872  0.8749588327953099
  0.3750840865952564  0.1249159321534086 -0.0000000329740519
  0.8750840565952468  0.6249159621534182 -0.0000000329740519
  0.8750840565952468  0.6249159621534182  0.4999999670259481
  0.3750840865952564  0.1249159321534086  0.4999999670259481
  0.1249159739168116  0.1249159727796881 -0.0000000280739857
  0.6249159959168206  0.6249159947796971 -0.0000000280739857
  0.6249159959168206  0.6249159947796971  0.4999999719260143
  0.1249159739168116  0.1249159727796881  0.4999999719260143
  0.3750840340831891  0.3750840352203125  0.0000000280739857
  0.8750840040831794  0.8750840052203029  0.0000000280739857
  0.8750840040831794  0.8750840052203029  0.5000000280739857
  0.3750840340831891  0.3750840352203125  0.5000000280739857
  0.4999999932451604  0.0000000385543128  0.3750411972046925
 -0.0000000067548396  0.5000000385543129  0.3750411972046925
 -0.0000000067548396  0.5000000385543129  0.8750411672046901
  0.4999999932451604  0.0000000385543128  0.8750411672046901
 
  0.00000000E+00  0.00000000E+00  0.00000000E+00
  0.00000000E+00  0.00000000E+00  0.00000000E+00
  0.00000000E+00  0.00000000E+00  0.00000000E+00
  0.00000000E+00  0.00000000E+00  0.00000000E+00
  0.00000000E+00  0.00000000E+00  0.00000000E+00
  0.00000000E+00  0.00000000E+00  0.00000000E+00
  0.00000000E+00  0.00000000E+00  0.00000000E+00
  0.00000000E+00  0.00000000E+00  0.00000000E+00
  0.00000000E+00  0.00000000E+00  0.00000000E+00
  0.00000000E+00  0.00000000E+00  0.00000000E+00
  0.00000000E+00  0.00000000E+00  0.00000000E+00
  0.00000000E+00  0.00000000E+00  0.00000000E+00
  0.00000000E+00  0.00000000E+00  0.00000000E+00
  0.00000000E+00  0.00000000E+00  0.00000000E+00
  0.00000000E+00  0.00000000E+00  0.00000000E+00
  0.00000000E+00  0.00000000E+00  0.00000000E+00
  0.00000000E+00  0.00000000E+00  0.00000000E+00
  0.00000000E+00  0.00000000E+00  0.00000000E+00
  0.00000000E+00  0.00000000E+00  0.00000000E+00
  0.00000000E+00  0.00000000E+00  0.00000000E+00
  0.00000000E+00  0.00000000E+00  0.00000000E+00
  0.00000000E+00  0.00000000E+00  0.00000000E+00
  0.00000000E+00  0.00000000E+00  0.00000000E+00
  0.00000000E+00  0.00000000E+00  0.00000000E+00
  0.00000000E+00  0.00000000E+00  0.00000000E+00
  0.00000000E+00  0.00000000E+00  0.00000000E+00
  0.00000000E+00  0.00000000E+00  0.00000000E+00
  0.00000000E+00  0.00000000E+00  0.00000000E+00
  0.00000000E+00  0.00000000E+00  0.00000000E+00
  0.00000000E+00  0.00000000E+00  0.00000000E+00
  0.00000000E+00  0.00000000E+00  0.00000000E+00
  0.00000000E+00  0.00000000E+00  0.00000000E+00
  0.00000000E+00  0.00000000E+00  0.00000000E+00
  0.00000000E+00  0.00000000E+00  0.00000000E+00
  0.00000000E+00  0.00000000E+00  0.00000000E+00
  0.00000000E+00  0.00000000E+00  0.00000000E+00
  0.00000000E+00  0.00000000E+00  0.00000000E+00
  0.00000000E+00  0.00000000E+00  0.00000000E+00
  0.00000000E+00  0.00000000E+00  0.00000000E+00
  0.00000000E+00  0.00000000E+00  0.00000000E+00
  0.00000000E+00  0.00000000E+00  0.00000000E+00
  0.00000000E+00  0.00000000E+00  0.00000000E+00
  0.00000000E+00  0.00000000E+00  0.00000000E+00
  0.00000000E+00  0.00000000E+00  0.00000000E+00
  0.00000000E+00  0.00000000E+00  0.00000000E+00
  0.00000000E+00  0.00000000E+00  0.00000000E+00
  0.00000000E+00  0.00000000E+00  0.00000000E+00
  0.00000000E+00  0.00000000E+00  0.00000000E+00
  0.00000000E+00  0.00000000E+00  0.00000000E+00
  0.00000000E+00  0.00000000E+00  0.00000000E+00
  0.00000000E+00  0.00000000E+00  0.00000000E+00
  0.00000000E+00  0.00000000E+00  0.00000000E+00
  0.00000000E+00  0.00000000E+00  0.00000000E+00
  0.00000000E+00  0.00000000E+00  0.00000000E+00
  0.00000000E+00  0.00000000E+00  0.00000000E+00
  0.00000000E+00  0.00000000E+00  0.00000000E+00
  0.00000000E+00  0.00000000E+00  0.00000000E+00
  0.00000000E+00  0.00000000E+00  0.00000000E+00
  0.00000000E+00  0.00000000E+00  0.00000000E+00
  0.00000000E+00  0.00000000E+00  0.00000000E+00
  0.00000000E+00  0.00000000E+00  0.00000000E+00
  0.00000000E+00  0.00000000E+00  0.00000000E+00
  0.00000000E+00  0.00000000E+00  0.00000000E+00
  0.00000000E+00  0.00000000E+00  0.00000000E+00
  0.00000000E+00  0.00000000E+00  0.00000000E+00
  0.00000000E+00  0.00000000E+00  0.00000000E+00
  0.00000000E+00  0.00000000E+00  0.00000000E+00
  0.00000000E+00  0.00000000E+00  0.00000000E+00
  0.00000000E+00  0.00000000E+00  0.00000000E+00
  0.00000000E+00  0.00000000E+00  0.00000000E+00
  0.00000000E+00  0.00000000E+00  0.00000000E+00
  0.00000000E+00  0.00000000E+00  0.00000000E+00
  0.00000000E+00  0.00000000E+00  0.00000000E+00
  0.00000000E+00  0.00000000E+00  0.00000000E+00
  0.00000000E+00  0.00000000E+00  0.00000000E+00
  0.00000000E+00  0.00000000E+00  0.00000000E+00
  0.00000000E+00  0.00000000E+00  0.00000000E+00
  0.00000000E+00  0.00000000E+00  0.00000000E+00
  0.00000000E+00  0.00000000E+00  0.00000000E+00
  0.00000000E+00  0.00000000E+00  0.00000000E+00
  0.00000000E+00  0.00000000E+00  0.00000000E+00
  0.00000000E+00  0.00000000E+00  0.00000000E+00
  0.00000000E+00  0.00000000E+00  0.00000000E+00
  0.00000000E+00  0.00000000E+00  0.00000000E+00
  0.00000000E+00  0.00000000E+00  0.00000000E+00
  0.00000000E+00  0.00000000E+00  0.00000000E+00
  0.00000000E+00  0.00000000E+00  0.00000000E+00
  0.00000000E+00  0.00000000E+00  0.00000000E+00
  0.00000000E+00  0.00000000E+00  0.00000000E+00
  0.00000000E+00  0.00000000E+00  0.00000000E+00
  0.00000000E+00  0.00000000E+00  0.00000000E+00
  0.00000000E+00  0.00000000E+00  0.00000000E+00
  0.00000000E+00  0.00000000E+00  0.00000000E+00
  0.00000000E+00  0.00000000E+00  0.00000000E+00
  0.00000000E+00  0.00000000E+00  0.00000000E+00
  0.00000000E+00  0.00000000E+00  0.00000000E+00
  0.00000000E+00  0.00000000E+00  0.00000000E+00
  0.00000000E+00  0.00000000E+00  0.00000000E+00
  0.00000000E+00  0.00000000E+00  0.00000000E+00
  0.00000000E+00  0.00000000E+00  0.00000000E+00
  0.00000000E+00  0.00000000E+00  0.00000000E+00
  0.00000000E+00  0.00000000E+00  0.00000000E+00
  0.00000000E+00  0.00000000E+00  0.00000000E+00
  0.00000000E+00  0.00000000E+00  0.00000000E+00
  0.00000000E+00  0.00000000E+00  0.00000000E+00
  0.00000000E+00  0.00000000E+00  0.00000000E+00
  0.00000000E+00  0.00000000E+00  0.00000000E+00
  0.00000000E+00  0.00000000E+00  0.00000000E+00
  0.00000000E+00  0.00000000E+00  0.00000000E+00
  0.00000000E+00  0.00000000E+00  0.00000000E+00
  0.00000000E+00  0.00000000E+00  0.00000000E+00
  0.00000000E+00  0.00000000E+00  0.00000000E+00
  0.00000000E+00  0.00000000E+00  0.00000000E+00
  0.00000000E+00  0.00000000E+00  0.00000000E+00
  0.00000000E+00  0.00000000E+00  0.00000000E+00
  0.00000000E+00  0.00000000E+00  0.00000000E+00
  0.00000000E+00  0.00000000E+00  0.00000000E+00
  0.00000000E+00  0.00000000E+00  0.00000000E+00
  0.00000000E+00  0.00000000E+00  0.00000000E+00
  0.00000000E+00  0.00000000E+00  0.00000000E+00
  0.00000000E+00  0.00000000E+00  0.00000000E+00
  0.00000000E+00  0.00000000E+00  0.00000000E+00
  0.00000000E+00  0.00000000E+00  0.00000000E+00
  0.00000000E+00  0.00000000E+00  0.00000000E+00
  0.00000000E+00  0.00000000E+00  0.00000000E+00
  0.00000000E+00  0.00000000E+00  0.00000000E+00
  0.00000000E+00  0.00000000E+00  0.00000000E+00
  0.00000000E+00  0.00000000E+00  0.00000000E+00
  0.00000000E+00  0.00000000E+00  0.00000000E+00
  0.00000000E+00  0.00000000E+00  0.00000000E+00
  0.00000000E+00  0.00000000E+00  0.00000000E+00
  0.00000000E+00  0.00000000E+00  0.00000000E+00
  0.00000000E+00  0.00000000E+00  0.00000000E+00
  0.00000000E+00  0.00000000E+00  0.00000000E+00
  0.00000000E+00  0.00000000E+00  0.00000000E+00
  0.00000000E+00  0.00000000E+00  0.00000000E+00
  0.00000000E+00  0.00000000E+00  0.00000000E+00
  0.00000000E+00  0.00000000E+00  0.00000000E+00
  0.00000000E+00  0.00000000E+00  0.00000000E+00
  0.00000000E+00  0.00000000E+00  0.00000000E+00
  0.00000000E+00  0.00000000E+00  0.00000000E+00
  0.00000000E+00  0.00000000E+00  0.00000000E+00
  0.00000000E+00  0.00000000E+00  0.00000000E+00
  0.00000000E+00  0.00000000E+00  0.00000000E+00
  0.00000000E+00  0.00000000E+00  0.00000000E+00
  0.00000000E+00  0.00000000E+00  0.00000000E+00
  0.00000000E+00  0.00000000E+00  0.00000000E+00
  0.00000000E+00  0.00000000E+00  0.00000000E+00
  0.00000000E+00  0.00000000E+00  0.00000000E+00
  0.00000000E+00  0.00000000E+00  0.00000000E+00
  0.00000000E+00  0.00000000E+00  0.00000000E+00
  0.00000000E+00  0.00000000E+00  0.00000000E+00
  0.00000000E+00  0.00000000E+00  0.00000000E+00
  0.00000000E+00  0.00000000E+00  0.00000000E+00
  0.00000000E+00  0.00000000E+00  0.00000000E+00
  0.00000000E+00  0.00000000E+00  0.00000000E+00
  0.00000000E+00  0.00000000E+00  0.00000000E+00
  0.00000000E+00  0.00000000E+00  0.00000000E+00
  0.00000000E+00  0.00000000E+00  0.00000000E+00
  0.00000000E+00  0.00000000E+00  0.00000000E+00
