Cs3 Bi2 Cl9                             
   1.00000000000000     
    13.2273006438999996    0.0000000000000000    0.0000000000000000
     0.0000000000000000   15.2885999679999998    0.0000000000000000
     0.0000000000000000    0.0000000000000000    9.3420000075999994
   Cs   Bi   Cl
    12     8    36
Direct
  0.9999993880509948  0.9999889316806311  0.0000001694848351
  0.9999993880509948  0.4999892468980546  0.0000001694848351
  0.4999994090510000  0.2499890542579658  0.0000001694848351
  0.4999994090510000  0.7499890272671085  0.0000001694848351
  0.1667170977128369  0.2499111455679198  0.6616782856587256
  0.1667167468549015  0.7499110094373398  0.6616785172955703
  0.6667166563369962  0.4999110990936684  0.6616776375294185
  0.6667161350094107  0.9999108543914893  0.6616779554542672
  0.8332838500882468  0.2499110232482223  0.3383222359358891
  0.8332842009461823  0.7499109171176519  0.3383220042990445
  0.3332843214640830  0.4999110067739805  0.3383228840651960
  0.3332848427916685  0.9999108220717993  0.3383225661403474
  0.1663701019338696  0.2500098760933998  0.1900495279352609
  0.1663704378907227  0.7500097387800725  0.1900495419539081
  0.6663704595910879  0.0000095940039813  0.1900500116232342
  0.6663707987017131  0.5000105095966829  0.1900512637522695
  0.8336292044732780  0.2500096149875037  0.8099503851589606
  0.8336288685164248  0.7500094776741765  0.8099503711403132
  0.3336288168160714  0.0000092718980838  0.8099499014709871
  0.3336284777054462  0.5000101884907890  0.8099486493419519
  0.2432902183782697  0.1218583970359698  0.9996989026013972
  0.2432906574586085  0.6218582458948847  0.9996992693108081
  0.7432903028284679  0.3718586705396711  0.9996986279559066
  0.7432903817587398  0.8718588496476239  0.9996990856885800
  0.0000004301598224  0.2571968446696484  0.9999999990844941
  0.0000004301598224  0.7571965935337066  0.9999999990844941
  0.5000004301598224  0.0071960094058597  0.9999999990844941
  0.5000004301598224  0.5071962089688380  0.9999999990844941
  0.7567095828267871  0.1218580225639964  0.0003017383842923
  0.7567091437464482  0.6218579014229138  0.0003013716748813
  0.2567094983765819  0.3718582960676977  0.0003020130297828
  0.2567094194463098  0.8718585051756530  0.0003015552971094
  0.6678681009212522  0.2470462519208695  0.6611280196758462
  0.6678677432345403  0.7470459159492471  0.6611281295864380
  0.1678684719147853  0.4970458595828496  0.6611297191648828
  0.1678675018042668  0.9970463216525103  0.6611283370624716
  0.9136947850378977  0.3757322227088537  0.6612934200432833
  0.9136950481658181  0.8757326711570389  0.6612928096114308
  0.4136945076761941  0.1257322244460313  0.6612933683298161
  0.4136947342471758  0.6257317068800246  0.6612939799740114
  0.9196404701903135  0.1268496733388084  0.6621087645365700
  0.9196401786406808  0.6268500707931680  0.6621085302095319
  0.4196406275790298  0.3768496772454449  0.6621085333599914
  0.4196402576132833  0.8768501000390535  0.6621091186914065
  0.0863053513159140  0.3757316252770395  0.3387058866480955
  0.0863050881879936  0.8757321037252200  0.3387064970799481
  0.5863056286776176  0.1257316270142170  0.3387059383615626
  0.5863054021066360  0.6257311394482057  0.3387053267173674
  0.3321316311801487  0.2470463238371735  0.3388723351678885
  0.3321319888668604  0.7470460178655465  0.3388722252572968
  0.8321312901866107  0.4970459614991490  0.3388706356788520
  0.8321322602971293  0.9970464235688097  0.3388720177812632
  0.0803598097303777  0.1268500106831191  0.3378903706844688
  0.0803601012800103  0.6268503931374810  0.3378906050115069
  0.5803596373416494  0.3768499995897580  0.3378906018610471
  0.5803600073073958  0.8768504223833665  0.3378900165296321
 
  0.00000000E+00  0.00000000E+00  0.00000000E+00
  0.00000000E+00  0.00000000E+00  0.00000000E+00
  0.00000000E+00  0.00000000E+00  0.00000000E+00
  0.00000000E+00  0.00000000E+00  0.00000000E+00
  0.00000000E+00  0.00000000E+00  0.00000000E+00
  0.00000000E+00  0.00000000E+00  0.00000000E+00
  0.00000000E+00  0.00000000E+00  0.00000000E+00
  0.00000000E+00  0.00000000E+00  0.00000000E+00
  0.00000000E+00  0.00000000E+00  0.00000000E+00
  0.00000000E+00  0.00000000E+00  0.00000000E+00
  0.00000000E+00  0.00000000E+00  0.00000000E+00
  0.00000000E+00  0.00000000E+00  0.00000000E+00
  0.00000000E+00  0.00000000E+00  0.00000000E+00
  0.00000000E+00  0.00000000E+00  0.00000000E+00
  0.00000000E+00  0.00000000E+00  0.00000000E+00
  0.00000000E+00  0.00000000E+00  0.00000000E+00
  0.00000000E+00  0.00000000E+00  0.00000000E+00
  0.00000000E+00  0.00000000E+00  0.00000000E+00
  0.00000000E+00  0.00000000E+00  0.00000000E+00
  0.00000000E+00  0.00000000E+00  0.00000000E+00
  0.00000000E+00  0.00000000E+00  0.00000000E+00
  0.00000000E+00  0.00000000E+00  0.00000000E+00
  0.00000000E+00  0.00000000E+00  0.00000000E+00
  0.00000000E+00  0.00000000E+00  0.00000000E+00
  0.00000000E+00  0.00000000E+00  0.00000000E+00
  0.00000000E+00  0.00000000E+00  0.00000000E+00
  0.00000000E+00  0.00000000E+00  0.00000000E+00
  0.00000000E+00  0.00000000E+00  0.00000000E+00
  0.00000000E+00  0.00000000E+00  0.00000000E+00
  0.00000000E+00  0.00000000E+00  0.00000000E+00
  0.00000000E+00  0.00000000E+00  0.00000000E+00
  0.00000000E+00  0.00000000E+00  0.00000000E+00
  0.00000000E+00  0.00000000E+00  0.00000000E+00
  0.00000000E+00  0.00000000E+00  0.00000000E+00
  0.00000000E+00  0.00000000E+00  0.00000000E+00
  0.00000000E+00  0.00000000E+00  0.00000000E+00
  0.00000000E+00  0.00000000E+00  0.00000000E+00
  0.00000000E+00  0.00000000E+00  0.00000000E+00
  0.00000000E+00  0.00000000E+00  0.00000000E+00
  0.00000000E+00  0.00000000E+00  0.00000000E+00
  0.00000000E+00  0.00000000E+00  0.00000000E+00
  0.00000000E+00  0.00000000E+00  0.00000000E+00
  0.00000000E+00  0.00000000E+00  0.00000000E+00
  0.00000000E+00  0.00000000E+00  0.00000000E+00
  0.00000000E+00  0.00000000E+00  0.00000000E+00
  0.00000000E+00  0.00000000E+00  0.00000000E+00
  0.00000000E+00  0.00000000E+00  0.00000000E+00
  0.00000000E+00  0.00000000E+00  0.00000000E+00
  0.00000000E+00  0.00000000E+00  0.00000000E+00
  0.00000000E+00  0.00000000E+00  0.00000000E+00
  0.00000000E+00  0.00000000E+00  0.00000000E+00
  0.00000000E+00  0.00000000E+00  0.00000000E+00
  0.00000000E+00  0.00000000E+00  0.00000000E+00
  0.00000000E+00  0.00000000E+00  0.00000000E+00
  0.00000000E+00  0.00000000E+00  0.00000000E+00
  0.00000000E+00  0.00000000E+00  0.00000000E+00
