Cs24 Bi8 Cl48                           
   1.00000000000000     
     0.0000000000000000   27.0171700000000001    0.0000000000000000
     8.2528000000000006    0.0000000000000000    0.0000000000000000
     0.0000000000000000   -2.2430900000000000  -13.1211000000000002
   Cs   Bi   Cl
    24     8    48
Direct
  0.6615121976204480  0.3124988975072450  0.2999017909030988
  0.5493056930300702  0.2517857411488334  0.9333616150685491
  0.8457003615867001  0.6843326465230222  0.8551298700237130
  0.8384878023795520  0.1875011024927551  0.7000982090969012
  0.8457003981616020  0.3156672563518469  0.3551299099093413
  0.5493056840993675  0.7482140719619383  0.4333615503249942
  0.6615122204188608  0.6875011292663106  0.7999017431720798
  0.6542996018383980  0.1843327436481530  0.6448700900906588
  0.6542996384132999  0.8156673534769778  0.1448701299762869
  0.9506943159006325  0.7517869280380662  0.5666384496750058
  0.8384877795811392  0.8124988707336894  0.2000982568279201
  0.9506943069699298  0.2482142588511666  0.0666383849314510
  0.1615121976204480  0.8124988975072521  0.2999017909030988
  0.0493056930300701  0.7517867411488381  0.9333616150685491
  0.3457003615867002  0.1843326465230222  0.8551298700237130
  0.3384878023795521  0.6875011024927479  0.7000982090969012
  0.3457003981616020  0.8156672563518470  0.3551299099093413
  0.0493056840993674  0.2482140719619383  0.4333615503249942
  0.1615122204188608  0.1875011292663178  0.7999017431720798
  0.1542996018383980  0.6843327436481530  0.6448700900906588
  0.1542996384132998  0.3156673534769777  0.1448701299762869
  0.4506943159006326  0.2517869280380662  0.5666384496750058
  0.3384877795811392  0.3124988707336823  0.2000982568279201
  0.4506943069699298  0.7482132588511619  0.0666383849314510
 -0.0000000265929835  0.2127627411482452  0.7500000875558100
  0.7500000000000000  0.7500000000000000  0.5000000000000000
  0.0000000265929835  0.7872372588517547  0.2499999124441900
  0.7500000000000000  0.2500000000000000  0.0000000000000000
  0.4999999734070165  0.7127627411482453  0.7500000875558100
  0.2500000000000000  0.2500000000000000  0.5000000000000000
  0.5000000265929834  0.2872372588517548  0.2499999124441900
  0.2500000000000000  0.7500000000000000  0.0000000000000000
  0.6712000579814807  0.9478500358151610  0.4203552472135254
  0.7499249353116535  0.1102437528369184  0.1870349516205658
  0.7499249215673394  0.8897562509238920  0.6870348083458925
  0.9413205190152042  0.2135773658447995  0.5631141195369216
  0.9437688111448372  0.5540236596337930  0.3234422057980218
  0.9437688436062953  0.4459761868575647  0.8234420948557413
  0.8233525810302547  0.9603011212871635  0.4656867416719573
  0.8287998567130155  0.4478496885752147  0.0796445831098677
  0.6712001432869845  0.0521503114247853  0.9203554168901322
  0.7500750646883465  0.3897562471630815  0.8129650483794413
  0.9412340934774324  0.9656191532818860  0.8031844504523926
  0.5587659065225676  0.5343808467181140  0.1968155495476073
  0.8233525166024172  0.0396990296205800  0.9656865841799991
  0.9413205338030101  0.7864226369926864  0.0631143644037790
  0.9412342252244681  0.0343806870079423  0.3031844270470321
  0.6766474189697453  0.5396988787128365  0.5343132583280427
  0.5586794809847958  0.2864226341552005  0.4368858804630783
  0.7500750784326606  0.6102437490761080  0.3129651916541005
  0.5587657747755319  0.4656193129920577  0.6968155729529678
  0.5562311563937047  0.0540238131424353  0.1765579051442588
  0.8287999420185193  0.5521499641848390  0.5796447527864748
  0.6766474833975828  0.4603009703794199  0.0343134158200008
  0.5586794661969899  0.7135773630073136  0.9368856355962208
  0.5562311888551628  0.9459763403662070  0.6765577942019781
  0.1712000579814808  0.4478500358151610  0.4203552472135254
  0.2499249353116534  0.6102437528369185  0.1870349516205658
  0.2499249215673394  0.3897562509238919  0.6870348083458925
  0.4413205190152042  0.7135773658447996  0.5631141195369216
  0.4437688111448372  0.0540236596337930  0.3234422057980218
  0.4437688436062953  0.9459761868575647  0.8234420948557413
  0.3233525810302548  0.4603011212871563  0.4656867416719573
  0.3287998567130155  0.9478506885752191  0.0796445831098677
  0.1712001432869845  0.5521493114247809  0.9203554168901322
  0.2500750646883466  0.8897562471630815  0.8129650483794413
  0.4412340934774324  0.4656191532818860  0.8031844504523926
  0.0587659065225676  0.0343808467181140  0.1968155495476073
  0.3233525166024172  0.5396990296205729  0.9656865841799991
  0.4413205338030101  0.2864226369926864  0.0631143644037790
  0.4412342252244680  0.5343806870079423  0.3031844270470321
  0.1766474189697452  0.0396988787128437  0.5343132583280427
  0.0586794809847958  0.7864226341552004  0.4368858804630783
  0.2500750784326606  0.1102437490761081  0.3129651916541005
  0.0587657747755320  0.9656193129920577  0.6968155729529678
  0.0562311563937047  0.5540238131424353  0.1765579051442588
  0.3287999420185193  0.0521499641848390  0.5796447527864748
  0.1766474833975828  0.9603009703794271  0.0343134158200008
  0.0586794661969899  0.2135773630073136  0.9368856355962208
  0.0562311888551629  0.4459763403662070  0.6765577942019781
 
  0.00000000E+00  0.00000000E+00  0.00000000E+00
  0.00000000E+00  0.00000000E+00  0.00000000E+00
  0.00000000E+00  0.00000000E+00  0.00000000E+00
  0.00000000E+00  0.00000000E+00  0.00000000E+00
  0.00000000E+00  0.00000000E+00  0.00000000E+00
  0.00000000E+00  0.00000000E+00  0.00000000E+00
  0.00000000E+00  0.00000000E+00  0.00000000E+00
  0.00000000E+00  0.00000000E+00  0.00000000E+00
  0.00000000E+00  0.00000000E+00  0.00000000E+00
  0.00000000E+00  0.00000000E+00  0.00000000E+00
  0.00000000E+00  0.00000000E+00  0.00000000E+00
  0.00000000E+00  0.00000000E+00  0.00000000E+00
  0.00000000E+00  0.00000000E+00  0.00000000E+00
  0.00000000E+00  0.00000000E+00  0.00000000E+00
  0.00000000E+00  0.00000000E+00  0.00000000E+00
  0.00000000E+00  0.00000000E+00  0.00000000E+00
  0.00000000E+00  0.00000000E+00  0.00000000E+00
  0.00000000E+00  0.00000000E+00  0.00000000E+00
  0.00000000E+00  0.00000000E+00  0.00000000E+00
  0.00000000E+00  0.00000000E+00  0.00000000E+00
  0.00000000E+00  0.00000000E+00  0.00000000E+00
  0.00000000E+00  0.00000000E+00  0.00000000E+00
  0.00000000E+00  0.00000000E+00  0.00000000E+00
  0.00000000E+00  0.00000000E+00  0.00000000E+00
  0.00000000E+00  0.00000000E+00  0.00000000E+00
  0.00000000E+00  0.00000000E+00  0.00000000E+00
  0.00000000E+00  0.00000000E+00  0.00000000E+00
  0.00000000E+00  0.00000000E+00  0.00000000E+00
  0.00000000E+00  0.00000000E+00  0.00000000E+00
  0.00000000E+00  0.00000000E+00  0.00000000E+00
  0.00000000E+00  0.00000000E+00  0.00000000E+00
  0.00000000E+00  0.00000000E+00  0.00000000E+00
  0.00000000E+00  0.00000000E+00  0.00000000E+00
  0.00000000E+00  0.00000000E+00  0.00000000E+00
  0.00000000E+00  0.00000000E+00  0.00000000E+00
  0.00000000E+00  0.00000000E+00  0.00000000E+00
  0.00000000E+00  0.00000000E+00  0.00000000E+00
  0.00000000E+00  0.00000000E+00  0.00000000E+00
  0.00000000E+00  0.00000000E+00  0.00000000E+00
  0.00000000E+00  0.00000000E+00  0.00000000E+00
  0.00000000E+00  0.00000000E+00  0.00000000E+00
  0.00000000E+00  0.00000000E+00  0.00000000E+00
  0.00000000E+00  0.00000000E+00  0.00000000E+00
  0.00000000E+00  0.00000000E+00  0.00000000E+00
  0.00000000E+00  0.00000000E+00  0.00000000E+00
  0.00000000E+00  0.00000000E+00  0.00000000E+00
  0.00000000E+00  0.00000000E+00  0.00000000E+00
  0.00000000E+00  0.00000000E+00  0.00000000E+00
  0.00000000E+00  0.00000000E+00  0.00000000E+00
  0.00000000E+00  0.00000000E+00  0.00000000E+00
  0.00000000E+00  0.00000000E+00  0.00000000E+00
  0.00000000E+00  0.00000000E+00  0.00000000E+00
  0.00000000E+00  0.00000000E+00  0.00000000E+00
  0.00000000E+00  0.00000000E+00  0.00000000E+00
  0.00000000E+00  0.00000000E+00  0.00000000E+00
  0.00000000E+00  0.00000000E+00  0.00000000E+00
  0.00000000E+00  0.00000000E+00  0.00000000E+00
  0.00000000E+00  0.00000000E+00  0.00000000E+00
  0.00000000E+00  0.00000000E+00  0.00000000E+00
  0.00000000E+00  0.00000000E+00  0.00000000E+00
  0.00000000E+00  0.00000000E+00  0.00000000E+00
  0.00000000E+00  0.00000000E+00  0.00000000E+00
  0.00000000E+00  0.00000000E+00  0.00000000E+00
  0.00000000E+00  0.00000000E+00  0.00000000E+00
  0.00000000E+00  0.00000000E+00  0.00000000E+00
  0.00000000E+00  0.00000000E+00  0.00000000E+00
  0.00000000E+00  0.00000000E+00  0.00000000E+00
  0.00000000E+00  0.00000000E+00  0.00000000E+00
  0.00000000E+00  0.00000000E+00  0.00000000E+00
  0.00000000E+00  0.00000000E+00  0.00000000E+00
  0.00000000E+00  0.00000000E+00  0.00000000E+00
  0.00000000E+00  0.00000000E+00  0.00000000E+00
  0.00000000E+00  0.00000000E+00  0.00000000E+00
  0.00000000E+00  0.00000000E+00  0.00000000E+00
  0.00000000E+00  0.00000000E+00  0.00000000E+00
  0.00000000E+00  0.00000000E+00  0.00000000E+00
  0.00000000E+00  0.00000000E+00  0.00000000E+00
  0.00000000E+00  0.00000000E+00  0.00000000E+00
  0.00000000E+00  0.00000000E+00  0.00000000E+00
  0.00000000E+00  0.00000000E+00  0.00000000E+00
