Cs8 Hf4 Cl24                            
   1.00000000000000     
    15.1331396103000007    0.0000000000000000    0.0000000000000000
     0.0000000000000000   15.1331396103000007    0.0000000000000000
     0.0000000000000000    0.0000000000000000   21.4014911651999995
   Cs   Hf   Cl
    32    16    96
Direct
  0.0000000000000000  0.2500000000000000  0.3750000000000000
  0.5000000000000000  0.7500000000000000  0.3750000000000000
  0.5000000000000000  0.7500000000000000  0.8750000000000000
  0.0000000000000000  0.2500000000000000  0.8750000000000000
  0.7500000000000000  0.5000000000000000  0.3750000000000000
  0.2500000000000000  0.0000000000000000  0.3750000000000000
  0.2500000000000000  0.0000000000000000  0.8750000000000000
  0.7500000000000000  0.5000000000000000  0.8750000000000000
  0.7500000000000000  0.5000000000000000  0.1250000000000000
  0.2500000000000000  0.0000000000000000  0.1250000000000000
  0.2500000000000000  0.0000000000000000  0.6250000000000000
  0.7500000000000000  0.5000000000000000  0.6250000000000000
  0.0000000000000000  0.2500000000000000  0.1250000000000000
  0.5000000000000000  0.7500000000000000  0.1250000000000000
  0.5000000000000000  0.7500000000000000  0.6250000000000000
  0.0000000000000000  0.2500000000000000  0.6250000000000000
  0.2500000000000000  0.5000000000000000  0.1250000000000000
  0.7500000000000000  0.0000000000000000  0.1250000000000000
  0.7500000000000000  0.0000000000000000  0.6250000000000000
  0.2500000000000000  0.5000000000000000  0.6250000000000000
  0.0000000000000000  0.7500000000000000  0.1250000000000000
  0.5000000000000000  0.2500000000000000  0.1250000000000000
  0.5000000000000000  0.2500000000000000  0.6250000000000000
  0.0000000000000000  0.7500000000000000  0.6250000000000000
  0.0000000000000000  0.7500000000000000  0.3750000000000000
  0.5000000000000000  0.2500000000000000  0.3750000000000000
  0.5000000000000000  0.2500000000000000  0.8750000000000000
  0.0000000000000000  0.7500000000000000  0.8750000000000000
  0.2500000000000000  0.5000000000000000  0.3750000000000000
  0.7500000000000000  0.0000000000000000  0.3750000000000000
  0.7500000000000000  0.0000000000000000  0.8750000000000000
  0.2500000000000000  0.5000000000000000  0.8750000000000000
  0.0000000000000000  0.0000000000000000  0.0000000000000000
  0.5000000000000000  0.5000000000000000  0.0000000000000000
  0.5000000000000000  0.5000000000000000  0.5000000000000000
  0.0000000000000000  0.0000000000000000  0.5000000000000000
  0.7500000000000000  0.2500000000000000  0.2500000000000000
  0.2500000000000000  0.7500000000000000  0.2500000000000000
  0.2500000000000000  0.7500000000000000  0.7500000000000000
  0.7500000000000000  0.2500000000000000  0.7500000000000000
  0.2500000000000000  0.2500000000000000  0.2500000000000000
  0.7500000000000000  0.7500000000000000  0.2500000000000000
  0.7500000000000000  0.7500000000000000  0.7500000000000000
  0.2500000000000000  0.2500000000000000  0.7500000000000000
  0.0000000000000000  0.5000000000000000  0.0000000000000000
  0.5000000000000000  0.0000000000000000  0.0000000000000000
  0.5000000000000000  0.0000000000000000  0.5000000000000000
  0.0000000000000000  0.5000000000000000  0.5000000000000000
  0.0000000000000000  0.0000000000000000  0.3848944212011716
  0.5000000000000000  0.5000000000000000  0.3848944212011716
  0.5000000000000000  0.5000000000000000  0.8848944212011716
  0.0000000000000000  0.0000000000000000  0.8848944212011716
  0.1150904075456016  0.3849095774543936  0.0000000000000000
  0.6150904225456064  0.8849095774543936  0.0000000000000000
  0.6150904225456064  0.8849095774543936  0.5000000000000000
  0.1150904075456016  0.3849095774543936  0.5000000000000000
  0.8849095774543936  0.6150904225456064  0.0000000000000000
  0.3849095774543936  0.1150904225456064  0.0000000000000000
  0.3849095774543936  0.1150904225456064  0.5000000000000000
  0.8849095774543936  0.6150904225456064  0.5000000000000000
  0.2500000000000000  0.2500000000000000  0.3651055787988284
  0.7500000000000000  0.7500000000000000  0.3651055787988284
  0.7500000000000000  0.7500000000000000  0.8651055787988284
  0.2500000000000000  0.2500000000000000  0.8651055787988284
  0.3849095774543936  0.3849095774543936  0.0000000000000000
  0.8849095774543936  0.8849095774543936  0.0000000000000000
  0.8849095774543936  0.8849095774543936  0.5000000000000000
  0.3849095774543936  0.3849095774543936  0.5000000000000000
  0.1150904075456016  0.1150904075456016  0.0000000000000000
  0.6150904225456064  0.6150904225456064  0.0000000000000000
  0.6150904225456064  0.6150904225456064  0.5000000000000000
  0.1150904075456016  0.1150904075456016  0.5000000000000000
  0.7500000000000000  0.2500000000000000  0.1348944362011764
  0.2500000000000000  0.7500000000000000  0.1348944362011764
  0.2500000000000000  0.7500000000000000  0.6348944212011716
  0.7500000000000000  0.2500000000000000  0.6348944212011716
  0.8650904225456064  0.6349095774543936  0.2500000000000000
  0.3650904225456064  0.1349095774543936  0.2500000000000000
  0.3650904225456064  0.1349095774543936  0.7500000000000000
  0.8650904225456064  0.6349095774543936  0.7500000000000000
  0.1349095924543984  0.3650904225456064  0.2500000000000000
  0.6349095774543936  0.8650904225456064  0.2500000000000000
  0.6349095774543936  0.8650904225456064  0.7500000000000000
  0.1349095924543984  0.3650904225456064  0.7500000000000000
  0.0000000000000000  0.5000000000000000  0.1151055637988236
  0.5000000000000000  0.0000000000000000  0.1151055637988236
  0.5000000000000000  0.0000000000000000  0.6151055787988284
  0.0000000000000000  0.5000000000000000  0.6151055787988284
  0.1349095774543936  0.6349095774543936  0.2500000000000000
  0.6349095774543936  0.1349095774543936  0.2500000000000000
  0.6349095774543936  0.1349095774543936  0.7500000000000000
  0.1349095774543936  0.6349095774543936  0.7500000000000000
  0.8650904225456064  0.3650904225456064  0.2500000000000000
  0.3650904225456064  0.8650904225456064  0.2500000000000000
  0.3650904225456064  0.8650904225456064  0.7500000000000000
  0.8650904225456064  0.3650904225456064  0.7500000000000000
  0.2500000000000000  0.2500000000000000  0.1348944362011764
  0.7500000000000000  0.7500000000000000  0.1348944362011764
  0.7500000000000000  0.7500000000000000  0.6348944212011716
  0.2500000000000000  0.2500000000000000  0.6348944212011716
  0.8650904225456064  0.1349095924543984  0.2500000000000000
  0.3650904225456064  0.6349095774543936  0.2500000000000000
  0.3650904225456064  0.6349095774543936  0.7500000000000000
  0.8650904225456064  0.1349095924543984  0.7500000000000000
  0.6349095774543936  0.3650904225456064  0.2500000000000000
  0.1349095774543936  0.8650904225456064  0.2500000000000000
  0.1349095774543936  0.8650904225456064  0.7500000000000000
  0.6349095774543936  0.3650904225456064  0.7500000000000000
  0.0000000000000000  0.0000000000000000  0.1151055637988236
  0.5000000000000000  0.5000000000000000  0.1151055637988236
  0.5000000000000000  0.5000000000000000  0.6151055787988284
  0.0000000000000000  0.0000000000000000  0.6151055787988284
  0.1349095924543984  0.1349095924543984  0.2500000000000000
  0.6349095774543936  0.6349095774543936  0.2500000000000000
  0.6349095774543936  0.6349095774543936  0.7500000000000000
  0.1349095924543984  0.1349095924543984  0.7500000000000000
  0.3650904225456064  0.3650904225456064  0.2500000000000000
  0.8650904225456064  0.8650904225456064  0.2500000000000000
  0.8650904225456064  0.8650904225456064  0.7500000000000000
  0.3650904225456064  0.3650904225456064  0.7500000000000000
  0.0000000000000000  0.5000000000000000  0.3848944212011716
  0.5000000000000000  0.0000000000000000  0.3848944212011716
  0.5000000000000000  0.0000000000000000  0.8848944212011716
  0.0000000000000000  0.5000000000000000  0.8848944212011716
  0.6150904225456064  0.3849095774543936  0.0000000000000000
  0.1150904225456064  0.8849095774543936  0.0000000000000000
  0.1150904225456064  0.8849095774543936  0.5000000000000000
  0.6150904225456064  0.3849095774543936  0.5000000000000000
  0.8849095774543936  0.1150904075456016  0.0000000000000000
  0.3849095774543936  0.6150904225456064  0.0000000000000000
  0.3849095774543936  0.6150904225456064  0.5000000000000000
  0.8849095774543936  0.1150904075456016  0.5000000000000000
  0.7500000000000000  0.2500000000000000  0.3651055787988284
  0.2500000000000000  0.7500000000000000  0.3651055787988284
  0.2500000000000000  0.7500000000000000  0.8651055787988284
  0.7500000000000000  0.2500000000000000  0.8651055787988284
  0.8849095774543936  0.3849095774543936  0.0000000000000000
  0.3849095774543936  0.8849095774543936  0.0000000000000000
  0.3849095774543936  0.8849095774543936  0.5000000000000000
  0.8849095774543936  0.3849095774543936  0.5000000000000000
  0.1150904225456064  0.6150904225456064  0.0000000000000000
  0.6150904225456064  0.1150904225456064  0.0000000000000000
  0.6150904225456064  0.1150904225456064  0.5000000000000000
  0.1150904225456064  0.6150904225456064  0.5000000000000000
 
  0.00000000E+00  0.00000000E+00  0.00000000E+00
  0.00000000E+00  0.00000000E+00  0.00000000E+00
  0.00000000E+00  0.00000000E+00  0.00000000E+00
  0.00000000E+00  0.00000000E+00  0.00000000E+00
  0.00000000E+00  0.00000000E+00  0.00000000E+00
  0.00000000E+00  0.00000000E+00  0.00000000E+00
  0.00000000E+00  0.00000000E+00  0.00000000E+00
  0.00000000E+00  0.00000000E+00  0.00000000E+00
  0.00000000E+00  0.00000000E+00  0.00000000E+00
  0.00000000E+00  0.00000000E+00  0.00000000E+00
  0.00000000E+00  0.00000000E+00  0.00000000E+00
  0.00000000E+00  0.00000000E+00  0.00000000E+00
  0.00000000E+00  0.00000000E+00  0.00000000E+00
  0.00000000E+00  0.00000000E+00  0.00000000E+00
  0.00000000E+00  0.00000000E+00  0.00000000E+00
  0.00000000E+00  0.00000000E+00  0.00000000E+00
  0.00000000E+00  0.00000000E+00  0.00000000E+00
  0.00000000E+00  0.00000000E+00  0.00000000E+00
  0.00000000E+00  0.00000000E+00  0.00000000E+00
  0.00000000E+00  0.00000000E+00  0.00000000E+00
  0.00000000E+00  0.00000000E+00  0.00000000E+00
  0.00000000E+00  0.00000000E+00  0.00000000E+00
  0.00000000E+00  0.00000000E+00  0.00000000E+00
  0.00000000E+00  0.00000000E+00  0.00000000E+00
  0.00000000E+00  0.00000000E+00  0.00000000E+00
  0.00000000E+00  0.00000000E+00  0.00000000E+00
  0.00000000E+00  0.00000000E+00  0.00000000E+00
  0.00000000E+00  0.00000000E+00  0.00000000E+00
  0.00000000E+00  0.00000000E+00  0.00000000E+00
  0.00000000E+00  0.00000000E+00  0.00000000E+00
  0.00000000E+00  0.00000000E+00  0.00000000E+00
  0.00000000E+00  0.00000000E+00  0.00000000E+00
  0.00000000E+00  0.00000000E+00  0.00000000E+00
  0.00000000E+00  0.00000000E+00  0.00000000E+00
  0.00000000E+00  0.00000000E+00  0.00000000E+00
  0.00000000E+00  0.00000000E+00  0.00000000E+00
  0.00000000E+00  0.00000000E+00  0.00000000E+00
  0.00000000E+00  0.00000000E+00  0.00000000E+00
  0.00000000E+00  0.00000000E+00  0.00000000E+00
  0.00000000E+00  0.00000000E+00  0.00000000E+00
  0.00000000E+00  0.00000000E+00  0.00000000E+00
  0.00000000E+00  0.00000000E+00  0.00000000E+00
  0.00000000E+00  0.00000000E+00  0.00000000E+00
  0.00000000E+00  0.00000000E+00  0.00000000E+00
  0.00000000E+00  0.00000000E+00  0.00000000E+00
  0.00000000E+00  0.00000000E+00  0.00000000E+00
  0.00000000E+00  0.00000000E+00  0.00000000E+00
  0.00000000E+00  0.00000000E+00  0.00000000E+00
  0.00000000E+00  0.00000000E+00  0.00000000E+00
  0.00000000E+00  0.00000000E+00  0.00000000E+00
  0.00000000E+00  0.00000000E+00  0.00000000E+00
  0.00000000E+00  0.00000000E+00  0.00000000E+00
  0.00000000E+00  0.00000000E+00  0.00000000E+00
  0.00000000E+00  0.00000000E+00  0.00000000E+00
  0.00000000E+00  0.00000000E+00  0.00000000E+00
  0.00000000E+00  0.00000000E+00  0.00000000E+00
  0.00000000E+00  0.00000000E+00  0.00000000E+00
  0.00000000E+00  0.00000000E+00  0.00000000E+00
  0.00000000E+00  0.00000000E+00  0.00000000E+00
  0.00000000E+00  0.00000000E+00  0.00000000E+00
  0.00000000E+00  0.00000000E+00  0.00000000E+00
  0.00000000E+00  0.00000000E+00  0.00000000E+00
  0.00000000E+00  0.00000000E+00  0.00000000E+00
  0.00000000E+00  0.00000000E+00  0.00000000E+00
  0.00000000E+00  0.00000000E+00  0.00000000E+00
  0.00000000E+00  0.00000000E+00  0.00000000E+00
  0.00000000E+00  0.00000000E+00  0.00000000E+00
  0.00000000E+00  0.00000000E+00  0.00000000E+00
  0.00000000E+00  0.00000000E+00  0.00000000E+00
  0.00000000E+00  0.00000000E+00  0.00000000E+00
  0.00000000E+00  0.00000000E+00  0.00000000E+00
  0.00000000E+00  0.00000000E+00  0.00000000E+00
  0.00000000E+00  0.00000000E+00  0.00000000E+00
  0.00000000E+00  0.00000000E+00  0.00000000E+00
  0.00000000E+00  0.00000000E+00  0.00000000E+00
  0.00000000E+00  0.00000000E+00  0.00000000E+00
  0.00000000E+00  0.00000000E+00  0.00000000E+00
  0.00000000E+00  0.00000000E+00  0.00000000E+00
  0.00000000E+00  0.00000000E+00  0.00000000E+00
  0.00000000E+00  0.00000000E+00  0.00000000E+00
  0.00000000E+00  0.00000000E+00  0.00000000E+00
  0.00000000E+00  0.00000000E+00  0.00000000E+00
  0.00000000E+00  0.00000000E+00  0.00000000E+00
  0.00000000E+00  0.00000000E+00  0.00000000E+00
  0.00000000E+00  0.00000000E+00  0.00000000E+00
  0.00000000E+00  0.00000000E+00  0.00000000E+00
  0.00000000E+00  0.00000000E+00  0.00000000E+00
  0.00000000E+00  0.00000000E+00  0.00000000E+00
  0.00000000E+00  0.00000000E+00  0.00000000E+00
  0.00000000E+00  0.00000000E+00  0.00000000E+00
  0.00000000E+00  0.00000000E+00  0.00000000E+00
  0.00000000E+00  0.00000000E+00  0.00000000E+00
  0.00000000E+00  0.00000000E+00  0.00000000E+00
  0.00000000E+00  0.00000000E+00  0.00000000E+00
  0.00000000E+00  0.00000000E+00  0.00000000E+00
  0.00000000E+00  0.00000000E+00  0.00000000E+00
  0.00000000E+00  0.00000000E+00  0.00000000E+00
  0.00000000E+00  0.00000000E+00  0.00000000E+00
  0.00000000E+00  0.00000000E+00  0.00000000E+00
  0.00000000E+00  0.00000000E+00  0.00000000E+00
  0.00000000E+00  0.00000000E+00  0.00000000E+00
  0.00000000E+00  0.00000000E+00  0.00000000E+00
  0.00000000E+00  0.00000000E+00  0.00000000E+00
  0.00000000E+00  0.00000000E+00  0.00000000E+00
  0.00000000E+00  0.00000000E+00  0.00000000E+00
  0.00000000E+00  0.00000000E+00  0.00000000E+00
  0.00000000E+00  0.00000000E+00  0.00000000E+00
  0.00000000E+00  0.00000000E+00  0.00000000E+00
  0.00000000E+00  0.00000000E+00  0.00000000E+00
  0.00000000E+00  0.00000000E+00  0.00000000E+00
  0.00000000E+00  0.00000000E+00  0.00000000E+00
  0.00000000E+00  0.00000000E+00  0.00000000E+00
  0.00000000E+00  0.00000000E+00  0.00000000E+00
  0.00000000E+00  0.00000000E+00  0.00000000E+00
  0.00000000E+00  0.00000000E+00  0.00000000E+00
  0.00000000E+00  0.00000000E+00  0.00000000E+00
  0.00000000E+00  0.00000000E+00  0.00000000E+00
  0.00000000E+00  0.00000000E+00  0.00000000E+00
  0.00000000E+00  0.00000000E+00  0.00000000E+00
  0.00000000E+00  0.00000000E+00  0.00000000E+00
  0.00000000E+00  0.00000000E+00  0.00000000E+00
  0.00000000E+00  0.00000000E+00  0.00000000E+00
  0.00000000E+00  0.00000000E+00  0.00000000E+00
  0.00000000E+00  0.00000000E+00  0.00000000E+00
  0.00000000E+00  0.00000000E+00  0.00000000E+00
  0.00000000E+00  0.00000000E+00  0.00000000E+00
  0.00000000E+00  0.00000000E+00  0.00000000E+00
  0.00000000E+00  0.00000000E+00  0.00000000E+00
  0.00000000E+00  0.00000000E+00  0.00000000E+00
  0.00000000E+00  0.00000000E+00  0.00000000E+00
  0.00000000E+00  0.00000000E+00  0.00000000E+00
  0.00000000E+00  0.00000000E+00  0.00000000E+00
  0.00000000E+00  0.00000000E+00  0.00000000E+00
  0.00000000E+00  0.00000000E+00  0.00000000E+00
  0.00000000E+00  0.00000000E+00  0.00000000E+00
  0.00000000E+00  0.00000000E+00  0.00000000E+00
  0.00000000E+00  0.00000000E+00  0.00000000E+00
  0.00000000E+00  0.00000000E+00  0.00000000E+00
  0.00000000E+00  0.00000000E+00  0.00000000E+00
  0.00000000E+00  0.00000000E+00  0.00000000E+00
  0.00000000E+00  0.00000000E+00  0.00000000E+00
  0.00000000E+00  0.00000000E+00  0.00000000E+00
  0.00000000E+00  0.00000000E+00  0.00000000E+00
  0.00000000E+00  0.00000000E+00  0.00000000E+00
