Cs8 Na4 Bi4 Cl24                        
   1.00000000000000     
    10.8034949086185090    0.0000000000000000    0.0000000000000000
     0.0000000000000000   10.8034949086185090    0.0000000000000000
     0.0000000000000000    0.0000000000000000   10.8034949086185090
   Cs   Na   Bi   Cl
     8     4     4    24
Direct
  0.2500002020762889  0.2500002020762889  0.7500002020762888
  0.2499997979237112  0.7499997979237112  0.7499997979237112
  0.2500002020762889  0.7500002020762888  0.2500002020762889
  0.2499997979237112  0.2499997979237112  0.2499997979237112
  0.7500002020762888  0.2500002020762889  0.2500002020762889
  0.7499997979237112  0.7499997979237112  0.2499997979237112
  0.7500002020762888  0.7500002020762888  0.7500002020762888
  0.7499997979237112  0.2499997979237112  0.7499997979237112
  0.5000000000000000 -0.0000000000000000 -0.0000000000000000
  0.5000000000000000  0.5000000000000000  0.5000000000000000
 -0.0000000000000000 -0.0000000000000000  0.5000000000000000
 -0.0000000000000000  0.5000000000000000 -0.0000000000000000
 -0.0000000000000000  0.0000000000000000 -0.0000000000000000
 -0.0000000000000000  0.5000000000000000  0.5000000000000000
  0.5000000000000000 -0.0000000000000000  0.5000000000000000
  0.5000000000000000  0.5000000000000000 -0.0000000000000000
  0.2498880770540794  0.0000000215188981 -0.0000000506947485
  0.5000000215188981 -0.0000000506947485  0.7498880770540723
  0.7501119229459277 -0.0000000215188981  0.0000000506947485
  0.4999999493052515  0.7498880770540723  0.0000000215188981
  0.5000000506947484  0.2501119229459206 -0.0000000215188981
 -0.0000000215188981  0.0000000506947485  0.7501119229459277
  0.2498880770540794  0.5000000215188981  0.4999999493052515
  0.5000000215188981  0.4999999493052515  0.2498880770540794
  0.7501119229459277  0.4999999784811018  0.5000000506947484
  0.4999999493052515  0.2498880770540794  0.5000000215188981
  0.5000000506947484  0.7501119229459277  0.4999999784811018
 -0.0000000215188981  0.5000000506947484  0.2501119229459206
  0.7498880770540723  0.0000000215188981  0.4999999493052515
  0.0000000215188981 -0.0000000506947485  0.2498880770540794
  0.2501119229459206 -0.0000000215188981  0.5000000506947484
 -0.0000000506947485  0.7498880770540723  0.5000000215188981
  0.0000000506947485  0.2501119229459206  0.4999999784811018
  0.4999999784811018  0.0000000506947485  0.2501119229459206
  0.7498880770540723  0.5000000215188981 -0.0000000506947485
  0.0000000215188981  0.4999999493052515  0.7498880770540723
  0.2501119229459206  0.4999999784811018  0.0000000506947485
 -0.0000000506947485  0.2498880770540794  0.0000000215188981
  0.0000000506947485  0.7501119229459277 -0.0000000215188981
  0.4999999784811018  0.5000000506947484  0.7501119229459277
 
  0.00000000E+00  0.00000000E+00  0.00000000E+00
  0.00000000E+00  0.00000000E+00  0.00000000E+00
  0.00000000E+00  0.00000000E+00  0.00000000E+00
  0.00000000E+00  0.00000000E+00  0.00000000E+00
  0.00000000E+00  0.00000000E+00  0.00000000E+00
  0.00000000E+00  0.00000000E+00  0.00000000E+00
  0.00000000E+00  0.00000000E+00  0.00000000E+00
  0.00000000E+00  0.00000000E+00  0.00000000E+00
  0.00000000E+00  0.00000000E+00  0.00000000E+00
  0.00000000E+00  0.00000000E+00  0.00000000E+00
  0.00000000E+00  0.00000000E+00  0.00000000E+00
  0.00000000E+00  0.00000000E+00  0.00000000E+00
  0.00000000E+00  0.00000000E+00  0.00000000E+00
  0.00000000E+00  0.00000000E+00  0.00000000E+00
  0.00000000E+00  0.00000000E+00  0.00000000E+00
  0.00000000E+00  0.00000000E+00  0.00000000E+00
  0.00000000E+00  0.00000000E+00  0.00000000E+00
  0.00000000E+00  0.00000000E+00  0.00000000E+00
  0.00000000E+00  0.00000000E+00  0.00000000E+00
  0.00000000E+00  0.00000000E+00  0.00000000E+00
  0.00000000E+00  0.00000000E+00  0.00000000E+00
  0.00000000E+00  0.00000000E+00  0.00000000E+00
  0.00000000E+00  0.00000000E+00  0.00000000E+00
  0.00000000E+00  0.00000000E+00  0.00000000E+00
  0.00000000E+00  0.00000000E+00  0.00000000E+00
  0.00000000E+00  0.00000000E+00  0.00000000E+00
  0.00000000E+00  0.00000000E+00  0.00000000E+00
  0.00000000E+00  0.00000000E+00  0.00000000E+00
  0.00000000E+00  0.00000000E+00  0.00000000E+00
  0.00000000E+00  0.00000000E+00  0.00000000E+00
  0.00000000E+00  0.00000000E+00  0.00000000E+00
  0.00000000E+00  0.00000000E+00  0.00000000E+00
  0.00000000E+00  0.00000000E+00  0.00000000E+00
  0.00000000E+00  0.00000000E+00  0.00000000E+00
  0.00000000E+00  0.00000000E+00  0.00000000E+00
  0.00000000E+00  0.00000000E+00  0.00000000E+00
  0.00000000E+00  0.00000000E+00  0.00000000E+00
  0.00000000E+00  0.00000000E+00  0.00000000E+00
  0.00000000E+00  0.00000000E+00  0.00000000E+00
  0.00000000E+00  0.00000000E+00  0.00000000E+00
